c *********************************
c * Circuit generated by BenCGen
c *
c * RippleCarryAdder_141_141_141_InOutT
c *
c * Ports with 1 gate(s): 1
c * Ports with 2 gate(s): 706
c * Total gates: 707
c *********************************
p cnf 989 2402
1 426 0
-1 -426 0
1 -425 0
426 -425 0
-1 -426 425 0
1 142 -428 0
-1 142 428 0
1 -142 428 0
-1 -142 -428 0
428 425 -283 0
-428 425 283 0
428 -425 283 0
-428 -425 -283 0
425 -429 0
428 -429 0
-425 -428 429 0
142 -430 0
1 -430 0
-142 -1 430 0
-429 427 0
-430 427 0
429 430 -427 0
2 143 -432 0
-2 143 432 0
2 -143 432 0
-2 -143 -432 0
432 427 -284 0
-432 427 284 0
432 -427 284 0
-432 -427 -284 0
427 -433 0
432 -433 0
-427 -432 433 0
143 -434 0
2 -434 0
-143 -2 434 0
-433 431 0
-434 431 0
433 434 -431 0
3 144 -436 0
-3 144 436 0
3 -144 436 0
-3 -144 -436 0
436 431 -285 0
-436 431 285 0
436 -431 285 0
-436 -431 -285 0
431 -437 0
436 -437 0
-431 -436 437 0
144 -438 0
3 -438 0
-144 -3 438 0
-437 435 0
-438 435 0
437 438 -435 0
4 145 -440 0
-4 145 440 0
4 -145 440 0
-4 -145 -440 0
440 435 -286 0
-440 435 286 0
440 -435 286 0
-440 -435 -286 0
435 -441 0
440 -441 0
-435 -440 441 0
145 -442 0
4 -442 0
-145 -4 442 0
-441 439 0
-442 439 0
441 442 -439 0
5 146 -444 0
-5 146 444 0
5 -146 444 0
-5 -146 -444 0
444 439 -287 0
-444 439 287 0
444 -439 287 0
-444 -439 -287 0
439 -445 0
444 -445 0
-439 -444 445 0
146 -446 0
5 -446 0
-146 -5 446 0
-445 443 0
-446 443 0
445 446 -443 0
6 147 -448 0
-6 147 448 0
6 -147 448 0
-6 -147 -448 0
448 443 -288 0
-448 443 288 0
448 -443 288 0
-448 -443 -288 0
443 -449 0
448 -449 0
-443 -448 449 0
147 -450 0
6 -450 0
-147 -6 450 0
-449 447 0
-450 447 0
449 450 -447 0
7 148 -452 0
-7 148 452 0
7 -148 452 0
-7 -148 -452 0
452 447 -289 0
-452 447 289 0
452 -447 289 0
-452 -447 -289 0
447 -453 0
452 -453 0
-447 -452 453 0
148 -454 0
7 -454 0
-148 -7 454 0
-453 451 0
-454 451 0
453 454 -451 0
8 149 -456 0
-8 149 456 0
8 -149 456 0
-8 -149 -456 0
456 451 -290 0
-456 451 290 0
456 -451 290 0
-456 -451 -290 0
451 -457 0
456 -457 0
-451 -456 457 0
149 -458 0
8 -458 0
-149 -8 458 0
-457 455 0
-458 455 0
457 458 -455 0
9 150 -460 0
-9 150 460 0
9 -150 460 0
-9 -150 -460 0
460 455 -291 0
-460 455 291 0
460 -455 291 0
-460 -455 -291 0
455 -461 0
460 -461 0
-455 -460 461 0
150 -462 0
9 -462 0
-150 -9 462 0
-461 459 0
-462 459 0
461 462 -459 0
10 151 -464 0
-10 151 464 0
10 -151 464 0
-10 -151 -464 0
464 459 -292 0
-464 459 292 0
464 -459 292 0
-464 -459 -292 0
459 -465 0
464 -465 0
-459 -464 465 0
151 -466 0
10 -466 0
-151 -10 466 0
-465 463 0
-466 463 0
465 466 -463 0
11 152 -468 0
-11 152 468 0
11 -152 468 0
-11 -152 -468 0
468 463 -293 0
-468 463 293 0
468 -463 293 0
-468 -463 -293 0
463 -469 0
468 -469 0
-463 -468 469 0
152 -470 0
11 -470 0
-152 -11 470 0
-469 467 0
-470 467 0
469 470 -467 0
12 153 -472 0
-12 153 472 0
12 -153 472 0
-12 -153 -472 0
472 467 -294 0
-472 467 294 0
472 -467 294 0
-472 -467 -294 0
467 -473 0
472 -473 0
-467 -472 473 0
153 -474 0
12 -474 0
-153 -12 474 0
-473 471 0
-474 471 0
473 474 -471 0
13 154 -476 0
-13 154 476 0
13 -154 476 0
-13 -154 -476 0
476 471 -295 0
-476 471 295 0
476 -471 295 0
-476 -471 -295 0
471 -477 0
476 -477 0
-471 -476 477 0
154 -478 0
13 -478 0
-154 -13 478 0
-477 475 0
-478 475 0
477 478 -475 0
14 155 -480 0
-14 155 480 0
14 -155 480 0
-14 -155 -480 0
480 475 -296 0
-480 475 296 0
480 -475 296 0
-480 -475 -296 0
475 -481 0
480 -481 0
-475 -480 481 0
155 -482 0
14 -482 0
-155 -14 482 0
-481 479 0
-482 479 0
481 482 -479 0
15 156 -484 0
-15 156 484 0
15 -156 484 0
-15 -156 -484 0
484 479 -297 0
-484 479 297 0
484 -479 297 0
-484 -479 -297 0
479 -485 0
484 -485 0
-479 -484 485 0
156 -486 0
15 -486 0
-156 -15 486 0
-485 483 0
-486 483 0
485 486 -483 0
16 157 -488 0
-16 157 488 0
16 -157 488 0
-16 -157 -488 0
488 483 -298 0
-488 483 298 0
488 -483 298 0
-488 -483 -298 0
483 -489 0
488 -489 0
-483 -488 489 0
157 -490 0
16 -490 0
-157 -16 490 0
-489 487 0
-490 487 0
489 490 -487 0
17 158 -492 0
-17 158 492 0
17 -158 492 0
-17 -158 -492 0
492 487 -299 0
-492 487 299 0
492 -487 299 0
-492 -487 -299 0
487 -493 0
492 -493 0
-487 -492 493 0
158 -494 0
17 -494 0
-158 -17 494 0
-493 491 0
-494 491 0
493 494 -491 0
18 159 -496 0
-18 159 496 0
18 -159 496 0
-18 -159 -496 0
496 491 -300 0
-496 491 300 0
496 -491 300 0
-496 -491 -300 0
491 -497 0
496 -497 0
-491 -496 497 0
159 -498 0
18 -498 0
-159 -18 498 0
-497 495 0
-498 495 0
497 498 -495 0
19 160 -500 0
-19 160 500 0
19 -160 500 0
-19 -160 -500 0
500 495 -301 0
-500 495 301 0
500 -495 301 0
-500 -495 -301 0
495 -501 0
500 -501 0
-495 -500 501 0
160 -502 0
19 -502 0
-160 -19 502 0
-501 499 0
-502 499 0
501 502 -499 0
20 161 -504 0
-20 161 504 0
20 -161 504 0
-20 -161 -504 0
504 499 -302 0
-504 499 302 0
504 -499 302 0
-504 -499 -302 0
499 -505 0
504 -505 0
-499 -504 505 0
161 -506 0
20 -506 0
-161 -20 506 0
-505 503 0
-506 503 0
505 506 -503 0
21 162 -508 0
-21 162 508 0
21 -162 508 0
-21 -162 -508 0
508 503 -303 0
-508 503 303 0
508 -503 303 0
-508 -503 -303 0
503 -509 0
508 -509 0
-503 -508 509 0
162 -510 0
21 -510 0
-162 -21 510 0
-509 507 0
-510 507 0
509 510 -507 0
22 163 -512 0
-22 163 512 0
22 -163 512 0
-22 -163 -512 0
512 507 -304 0
-512 507 304 0
512 -507 304 0
-512 -507 -304 0
507 -513 0
512 -513 0
-507 -512 513 0
163 -514 0
22 -514 0
-163 -22 514 0
-513 511 0
-514 511 0
513 514 -511 0
23 164 -516 0
-23 164 516 0
23 -164 516 0
-23 -164 -516 0
516 511 -305 0
-516 511 305 0
516 -511 305 0
-516 -511 -305 0
511 -517 0
516 -517 0
-511 -516 517 0
164 -518 0
23 -518 0
-164 -23 518 0
-517 515 0
-518 515 0
517 518 -515 0
24 165 -520 0
-24 165 520 0
24 -165 520 0
-24 -165 -520 0
520 515 -306 0
-520 515 306 0
520 -515 306 0
-520 -515 -306 0
515 -521 0
520 -521 0
-515 -520 521 0
165 -522 0
24 -522 0
-165 -24 522 0
-521 519 0
-522 519 0
521 522 -519 0
25 166 -524 0
-25 166 524 0
25 -166 524 0
-25 -166 -524 0
524 519 -307 0
-524 519 307 0
524 -519 307 0
-524 -519 -307 0
519 -525 0
524 -525 0
-519 -524 525 0
166 -526 0
25 -526 0
-166 -25 526 0
-525 523 0
-526 523 0
525 526 -523 0
26 167 -528 0
-26 167 528 0
26 -167 528 0
-26 -167 -528 0
528 523 -308 0
-528 523 308 0
528 -523 308 0
-528 -523 -308 0
523 -529 0
528 -529 0
-523 -528 529 0
167 -530 0
26 -530 0
-167 -26 530 0
-529 527 0
-530 527 0
529 530 -527 0
27 168 -532 0
-27 168 532 0
27 -168 532 0
-27 -168 -532 0
532 527 -309 0
-532 527 309 0
532 -527 309 0
-532 -527 -309 0
527 -533 0
532 -533 0
-527 -532 533 0
168 -534 0
27 -534 0
-168 -27 534 0
-533 531 0
-534 531 0
533 534 -531 0
28 169 -536 0
-28 169 536 0
28 -169 536 0
-28 -169 -536 0
536 531 -310 0
-536 531 310 0
536 -531 310 0
-536 -531 -310 0
531 -537 0
536 -537 0
-531 -536 537 0
169 -538 0
28 -538 0
-169 -28 538 0
-537 535 0
-538 535 0
537 538 -535 0
29 170 -540 0
-29 170 540 0
29 -170 540 0
-29 -170 -540 0
540 535 -311 0
-540 535 311 0
540 -535 311 0
-540 -535 -311 0
535 -541 0
540 -541 0
-535 -540 541 0
170 -542 0
29 -542 0
-170 -29 542 0
-541 539 0
-542 539 0
541 542 -539 0
30 171 -544 0
-30 171 544 0
30 -171 544 0
-30 -171 -544 0
544 539 -312 0
-544 539 312 0
544 -539 312 0
-544 -539 -312 0
539 -545 0
544 -545 0
-539 -544 545 0
171 -546 0
30 -546 0
-171 -30 546 0
-545 543 0
-546 543 0
545 546 -543 0
31 172 -548 0
-31 172 548 0
31 -172 548 0
-31 -172 -548 0
548 543 -313 0
-548 543 313 0
548 -543 313 0
-548 -543 -313 0
543 -549 0
548 -549 0
-543 -548 549 0
172 -550 0
31 -550 0
-172 -31 550 0
-549 547 0
-550 547 0
549 550 -547 0
32 173 -552 0
-32 173 552 0
32 -173 552 0
-32 -173 -552 0
552 547 -314 0
-552 547 314 0
552 -547 314 0
-552 -547 -314 0
547 -553 0
552 -553 0
-547 -552 553 0
173 -554 0
32 -554 0
-173 -32 554 0
-553 551 0
-554 551 0
553 554 -551 0
33 174 -556 0
-33 174 556 0
33 -174 556 0
-33 -174 -556 0
556 551 -315 0
-556 551 315 0
556 -551 315 0
-556 -551 -315 0
551 -557 0
556 -557 0
-551 -556 557 0
174 -558 0
33 -558 0
-174 -33 558 0
-557 555 0
-558 555 0
557 558 -555 0
34 175 -560 0
-34 175 560 0
34 -175 560 0
-34 -175 -560 0
560 555 -316 0
-560 555 316 0
560 -555 316 0
-560 -555 -316 0
555 -561 0
560 -561 0
-555 -560 561 0
175 -562 0
34 -562 0
-175 -34 562 0
-561 559 0
-562 559 0
561 562 -559 0
35 176 -564 0
-35 176 564 0
35 -176 564 0
-35 -176 -564 0
564 559 -317 0
-564 559 317 0
564 -559 317 0
-564 -559 -317 0
559 -565 0
564 -565 0
-559 -564 565 0
176 -566 0
35 -566 0
-176 -35 566 0
-565 563 0
-566 563 0
565 566 -563 0
36 177 -568 0
-36 177 568 0
36 -177 568 0
-36 -177 -568 0
568 563 -318 0
-568 563 318 0
568 -563 318 0
-568 -563 -318 0
563 -569 0
568 -569 0
-563 -568 569 0
177 -570 0
36 -570 0
-177 -36 570 0
-569 567 0
-570 567 0
569 570 -567 0
37 178 -572 0
-37 178 572 0
37 -178 572 0
-37 -178 -572 0
572 567 -319 0
-572 567 319 0
572 -567 319 0
-572 -567 -319 0
567 -573 0
572 -573 0
-567 -572 573 0
178 -574 0
37 -574 0
-178 -37 574 0
-573 571 0
-574 571 0
573 574 -571 0
38 179 -576 0
-38 179 576 0
38 -179 576 0
-38 -179 -576 0
576 571 -320 0
-576 571 320 0
576 -571 320 0
-576 -571 -320 0
571 -577 0
576 -577 0
-571 -576 577 0
179 -578 0
38 -578 0
-179 -38 578 0
-577 575 0
-578 575 0
577 578 -575 0
39 180 -580 0
-39 180 580 0
39 -180 580 0
-39 -180 -580 0
580 575 -321 0
-580 575 321 0
580 -575 321 0
-580 -575 -321 0
575 -581 0
580 -581 0
-575 -580 581 0
180 -582 0
39 -582 0
-180 -39 582 0
-581 579 0
-582 579 0
581 582 -579 0
40 181 -584 0
-40 181 584 0
40 -181 584 0
-40 -181 -584 0
584 579 -322 0
-584 579 322 0
584 -579 322 0
-584 -579 -322 0
579 -585 0
584 -585 0
-579 -584 585 0
181 -586 0
40 -586 0
-181 -40 586 0
-585 583 0
-586 583 0
585 586 -583 0
41 182 -588 0
-41 182 588 0
41 -182 588 0
-41 -182 -588 0
588 583 -323 0
-588 583 323 0
588 -583 323 0
-588 -583 -323 0
583 -589 0
588 -589 0
-583 -588 589 0
182 -590 0
41 -590 0
-182 -41 590 0
-589 587 0
-590 587 0
589 590 -587 0
42 183 -592 0
-42 183 592 0
42 -183 592 0
-42 -183 -592 0
592 587 -324 0
-592 587 324 0
592 -587 324 0
-592 -587 -324 0
587 -593 0
592 -593 0
-587 -592 593 0
183 -594 0
42 -594 0
-183 -42 594 0
-593 591 0
-594 591 0
593 594 -591 0
43 184 -596 0
-43 184 596 0
43 -184 596 0
-43 -184 -596 0
596 591 -325 0
-596 591 325 0
596 -591 325 0
-596 -591 -325 0
591 -597 0
596 -597 0
-591 -596 597 0
184 -598 0
43 -598 0
-184 -43 598 0
-597 595 0
-598 595 0
597 598 -595 0
44 185 -600 0
-44 185 600 0
44 -185 600 0
-44 -185 -600 0
600 595 -326 0
-600 595 326 0
600 -595 326 0
-600 -595 -326 0
595 -601 0
600 -601 0
-595 -600 601 0
185 -602 0
44 -602 0
-185 -44 602 0
-601 599 0
-602 599 0
601 602 -599 0
45 186 -604 0
-45 186 604 0
45 -186 604 0
-45 -186 -604 0
604 599 -327 0
-604 599 327 0
604 -599 327 0
-604 -599 -327 0
599 -605 0
604 -605 0
-599 -604 605 0
186 -606 0
45 -606 0
-186 -45 606 0
-605 603 0
-606 603 0
605 606 -603 0
46 187 -608 0
-46 187 608 0
46 -187 608 0
-46 -187 -608 0
608 603 -328 0
-608 603 328 0
608 -603 328 0
-608 -603 -328 0
603 -609 0
608 -609 0
-603 -608 609 0
187 -610 0
46 -610 0
-187 -46 610 0
-609 607 0
-610 607 0
609 610 -607 0
47 188 -612 0
-47 188 612 0
47 -188 612 0
-47 -188 -612 0
612 607 -329 0
-612 607 329 0
612 -607 329 0
-612 -607 -329 0
607 -613 0
612 -613 0
-607 -612 613 0
188 -614 0
47 -614 0
-188 -47 614 0
-613 611 0
-614 611 0
613 614 -611 0
48 189 -616 0
-48 189 616 0
48 -189 616 0
-48 -189 -616 0
616 611 -330 0
-616 611 330 0
616 -611 330 0
-616 -611 -330 0
611 -617 0
616 -617 0
-611 -616 617 0
189 -618 0
48 -618 0
-189 -48 618 0
-617 615 0
-618 615 0
617 618 -615 0
49 190 -620 0
-49 190 620 0
49 -190 620 0
-49 -190 -620 0
620 615 -331 0
-620 615 331 0
620 -615 331 0
-620 -615 -331 0
615 -621 0
620 -621 0
-615 -620 621 0
190 -622 0
49 -622 0
-190 -49 622 0
-621 619 0
-622 619 0
621 622 -619 0
50 191 -624 0
-50 191 624 0
50 -191 624 0
-50 -191 -624 0
624 619 -332 0
-624 619 332 0
624 -619 332 0
-624 -619 -332 0
619 -625 0
624 -625 0
-619 -624 625 0
191 -626 0
50 -626 0
-191 -50 626 0
-625 623 0
-626 623 0
625 626 -623 0
51 192 -628 0
-51 192 628 0
51 -192 628 0
-51 -192 -628 0
628 623 -333 0
-628 623 333 0
628 -623 333 0
-628 -623 -333 0
623 -629 0
628 -629 0
-623 -628 629 0
192 -630 0
51 -630 0
-192 -51 630 0
-629 627 0
-630 627 0
629 630 -627 0
52 193 -632 0
-52 193 632 0
52 -193 632 0
-52 -193 -632 0
632 627 -334 0
-632 627 334 0
632 -627 334 0
-632 -627 -334 0
627 -633 0
632 -633 0
-627 -632 633 0
193 -634 0
52 -634 0
-193 -52 634 0
-633 631 0
-634 631 0
633 634 -631 0
53 194 -636 0
-53 194 636 0
53 -194 636 0
-53 -194 -636 0
636 631 -335 0
-636 631 335 0
636 -631 335 0
-636 -631 -335 0
631 -637 0
636 -637 0
-631 -636 637 0
194 -638 0
53 -638 0
-194 -53 638 0
-637 635 0
-638 635 0
637 638 -635 0
54 195 -640 0
-54 195 640 0
54 -195 640 0
-54 -195 -640 0
640 635 -336 0
-640 635 336 0
640 -635 336 0
-640 -635 -336 0
635 -641 0
640 -641 0
-635 -640 641 0
195 -642 0
54 -642 0
-195 -54 642 0
-641 639 0
-642 639 0
641 642 -639 0
55 196 -644 0
-55 196 644 0
55 -196 644 0
-55 -196 -644 0
644 639 -337 0
-644 639 337 0
644 -639 337 0
-644 -639 -337 0
639 -645 0
644 -645 0
-639 -644 645 0
196 -646 0
55 -646 0
-196 -55 646 0
-645 643 0
-646 643 0
645 646 -643 0
56 197 -648 0
-56 197 648 0
56 -197 648 0
-56 -197 -648 0
648 643 -338 0
-648 643 338 0
648 -643 338 0
-648 -643 -338 0
643 -649 0
648 -649 0
-643 -648 649 0
197 -650 0
56 -650 0
-197 -56 650 0
-649 647 0
-650 647 0
649 650 -647 0
57 198 -652 0
-57 198 652 0
57 -198 652 0
-57 -198 -652 0
652 647 -339 0
-652 647 339 0
652 -647 339 0
-652 -647 -339 0
647 -653 0
652 -653 0
-647 -652 653 0
198 -654 0
57 -654 0
-198 -57 654 0
-653 651 0
-654 651 0
653 654 -651 0
58 199 -656 0
-58 199 656 0
58 -199 656 0
-58 -199 -656 0
656 651 -340 0
-656 651 340 0
656 -651 340 0
-656 -651 -340 0
651 -657 0
656 -657 0
-651 -656 657 0
199 -658 0
58 -658 0
-199 -58 658 0
-657 655 0
-658 655 0
657 658 -655 0
59 200 -660 0
-59 200 660 0
59 -200 660 0
-59 -200 -660 0
660 655 -341 0
-660 655 341 0
660 -655 341 0
-660 -655 -341 0
655 -661 0
660 -661 0
-655 -660 661 0
200 -662 0
59 -662 0
-200 -59 662 0
-661 659 0
-662 659 0
661 662 -659 0
60 201 -664 0
-60 201 664 0
60 -201 664 0
-60 -201 -664 0
664 659 -342 0
-664 659 342 0
664 -659 342 0
-664 -659 -342 0
659 -665 0
664 -665 0
-659 -664 665 0
201 -666 0
60 -666 0
-201 -60 666 0
-665 663 0
-666 663 0
665 666 -663 0
61 202 -668 0
-61 202 668 0
61 -202 668 0
-61 -202 -668 0
668 663 -343 0
-668 663 343 0
668 -663 343 0
-668 -663 -343 0
663 -669 0
668 -669 0
-663 -668 669 0
202 -670 0
61 -670 0
-202 -61 670 0
-669 667 0
-670 667 0
669 670 -667 0
62 203 -672 0
-62 203 672 0
62 -203 672 0
-62 -203 -672 0
672 667 -344 0
-672 667 344 0
672 -667 344 0
-672 -667 -344 0
667 -673 0
672 -673 0
-667 -672 673 0
203 -674 0
62 -674 0
-203 -62 674 0
-673 671 0
-674 671 0
673 674 -671 0
63 204 -676 0
-63 204 676 0
63 -204 676 0
-63 -204 -676 0
676 671 -345 0
-676 671 345 0
676 -671 345 0
-676 -671 -345 0
671 -677 0
676 -677 0
-671 -676 677 0
204 -678 0
63 -678 0
-204 -63 678 0
-677 675 0
-678 675 0
677 678 -675 0
64 205 -680 0
-64 205 680 0
64 -205 680 0
-64 -205 -680 0
680 675 -346 0
-680 675 346 0
680 -675 346 0
-680 -675 -346 0
675 -681 0
680 -681 0
-675 -680 681 0
205 -682 0
64 -682 0
-205 -64 682 0
-681 679 0
-682 679 0
681 682 -679 0
65 206 -684 0
-65 206 684 0
65 -206 684 0
-65 -206 -684 0
684 679 -347 0
-684 679 347 0
684 -679 347 0
-684 -679 -347 0
679 -685 0
684 -685 0
-679 -684 685 0
206 -686 0
65 -686 0
-206 -65 686 0
-685 683 0
-686 683 0
685 686 -683 0
66 207 -688 0
-66 207 688 0
66 -207 688 0
-66 -207 -688 0
688 683 -348 0
-688 683 348 0
688 -683 348 0
-688 -683 -348 0
683 -689 0
688 -689 0
-683 -688 689 0
207 -690 0
66 -690 0
-207 -66 690 0
-689 687 0
-690 687 0
689 690 -687 0
67 208 -692 0
-67 208 692 0
67 -208 692 0
-67 -208 -692 0
692 687 -349 0
-692 687 349 0
692 -687 349 0
-692 -687 -349 0
687 -693 0
692 -693 0
-687 -692 693 0
208 -694 0
67 -694 0
-208 -67 694 0
-693 691 0
-694 691 0
693 694 -691 0
68 209 -696 0
-68 209 696 0
68 -209 696 0
-68 -209 -696 0
696 691 -350 0
-696 691 350 0
696 -691 350 0
-696 -691 -350 0
691 -697 0
696 -697 0
-691 -696 697 0
209 -698 0
68 -698 0
-209 -68 698 0
-697 695 0
-698 695 0
697 698 -695 0
69 210 -700 0
-69 210 700 0
69 -210 700 0
-69 -210 -700 0
700 695 -351 0
-700 695 351 0
700 -695 351 0
-700 -695 -351 0
695 -701 0
700 -701 0
-695 -700 701 0
210 -702 0
69 -702 0
-210 -69 702 0
-701 699 0
-702 699 0
701 702 -699 0
70 211 -704 0
-70 211 704 0
70 -211 704 0
-70 -211 -704 0
704 699 -352 0
-704 699 352 0
704 -699 352 0
-704 -699 -352 0
699 -705 0
704 -705 0
-699 -704 705 0
211 -706 0
70 -706 0
-211 -70 706 0
-705 703 0
-706 703 0
705 706 -703 0
71 212 -708 0
-71 212 708 0
71 -212 708 0
-71 -212 -708 0
708 703 -353 0
-708 703 353 0
708 -703 353 0
-708 -703 -353 0
703 -709 0
708 -709 0
-703 -708 709 0
212 -710 0
71 -710 0
-212 -71 710 0
-709 707 0
-710 707 0
709 710 -707 0
72 213 -712 0
-72 213 712 0
72 -213 712 0
-72 -213 -712 0
712 707 -354 0
-712 707 354 0
712 -707 354 0
-712 -707 -354 0
707 -713 0
712 -713 0
-707 -712 713 0
213 -714 0
72 -714 0
-213 -72 714 0
-713 711 0
-714 711 0
713 714 -711 0
73 214 -716 0
-73 214 716 0
73 -214 716 0
-73 -214 -716 0
716 711 -355 0
-716 711 355 0
716 -711 355 0
-716 -711 -355 0
711 -717 0
716 -717 0
-711 -716 717 0
214 -718 0
73 -718 0
-214 -73 718 0
-717 715 0
-718 715 0
717 718 -715 0
74 215 -720 0
-74 215 720 0
74 -215 720 0
-74 -215 -720 0
720 715 -356 0
-720 715 356 0
720 -715 356 0
-720 -715 -356 0
715 -721 0
720 -721 0
-715 -720 721 0
215 -722 0
74 -722 0
-215 -74 722 0
-721 719 0
-722 719 0
721 722 -719 0
75 216 -724 0
-75 216 724 0
75 -216 724 0
-75 -216 -724 0
724 719 -357 0
-724 719 357 0
724 -719 357 0
-724 -719 -357 0
719 -725 0
724 -725 0
-719 -724 725 0
216 -726 0
75 -726 0
-216 -75 726 0
-725 723 0
-726 723 0
725 726 -723 0
76 217 -728 0
-76 217 728 0
76 -217 728 0
-76 -217 -728 0
728 723 -358 0
-728 723 358 0
728 -723 358 0
-728 -723 -358 0
723 -729 0
728 -729 0
-723 -728 729 0
217 -730 0
76 -730 0
-217 -76 730 0
-729 727 0
-730 727 0
729 730 -727 0
77 218 -732 0
-77 218 732 0
77 -218 732 0
-77 -218 -732 0
732 727 -359 0
-732 727 359 0
732 -727 359 0
-732 -727 -359 0
727 -733 0
732 -733 0
-727 -732 733 0
218 -734 0
77 -734 0
-218 -77 734 0
-733 731 0
-734 731 0
733 734 -731 0
78 219 -736 0
-78 219 736 0
78 -219 736 0
-78 -219 -736 0
736 731 -360 0
-736 731 360 0
736 -731 360 0
-736 -731 -360 0
731 -737 0
736 -737 0
-731 -736 737 0
219 -738 0
78 -738 0
-219 -78 738 0
-737 735 0
-738 735 0
737 738 -735 0
79 220 -740 0
-79 220 740 0
79 -220 740 0
-79 -220 -740 0
740 735 -361 0
-740 735 361 0
740 -735 361 0
-740 -735 -361 0
735 -741 0
740 -741 0
-735 -740 741 0
220 -742 0
79 -742 0
-220 -79 742 0
-741 739 0
-742 739 0
741 742 -739 0
80 221 -744 0
-80 221 744 0
80 -221 744 0
-80 -221 -744 0
744 739 -362 0
-744 739 362 0
744 -739 362 0
-744 -739 -362 0
739 -745 0
744 -745 0
-739 -744 745 0
221 -746 0
80 -746 0
-221 -80 746 0
-745 743 0
-746 743 0
745 746 -743 0
81 222 -748 0
-81 222 748 0
81 -222 748 0
-81 -222 -748 0
748 743 -363 0
-748 743 363 0
748 -743 363 0
-748 -743 -363 0
743 -749 0
748 -749 0
-743 -748 749 0
222 -750 0
81 -750 0
-222 -81 750 0
-749 747 0
-750 747 0
749 750 -747 0
82 223 -752 0
-82 223 752 0
82 -223 752 0
-82 -223 -752 0
752 747 -364 0
-752 747 364 0
752 -747 364 0
-752 -747 -364 0
747 -753 0
752 -753 0
-747 -752 753 0
223 -754 0
82 -754 0
-223 -82 754 0
-753 751 0
-754 751 0
753 754 -751 0
83 224 -756 0
-83 224 756 0
83 -224 756 0
-83 -224 -756 0
756 751 -365 0
-756 751 365 0
756 -751 365 0
-756 -751 -365 0
751 -757 0
756 -757 0
-751 -756 757 0
224 -758 0
83 -758 0
-224 -83 758 0
-757 755 0
-758 755 0
757 758 -755 0
84 225 -760 0
-84 225 760 0
84 -225 760 0
-84 -225 -760 0
760 755 -366 0
-760 755 366 0
760 -755 366 0
-760 -755 -366 0
755 -761 0
760 -761 0
-755 -760 761 0
225 -762 0
84 -762 0
-225 -84 762 0
-761 759 0
-762 759 0
761 762 -759 0
85 226 -764 0
-85 226 764 0
85 -226 764 0
-85 -226 -764 0
764 759 -367 0
-764 759 367 0
764 -759 367 0
-764 -759 -367 0
759 -765 0
764 -765 0
-759 -764 765 0
226 -766 0
85 -766 0
-226 -85 766 0
-765 763 0
-766 763 0
765 766 -763 0
86 227 -768 0
-86 227 768 0
86 -227 768 0
-86 -227 -768 0
768 763 -368 0
-768 763 368 0
768 -763 368 0
-768 -763 -368 0
763 -769 0
768 -769 0
-763 -768 769 0
227 -770 0
86 -770 0
-227 -86 770 0
-769 767 0
-770 767 0
769 770 -767 0
87 228 -772 0
-87 228 772 0
87 -228 772 0
-87 -228 -772 0
772 767 -369 0
-772 767 369 0
772 -767 369 0
-772 -767 -369 0
767 -773 0
772 -773 0
-767 -772 773 0
228 -774 0
87 -774 0
-228 -87 774 0
-773 771 0
-774 771 0
773 774 -771 0
88 229 -776 0
-88 229 776 0
88 -229 776 0
-88 -229 -776 0
776 771 -370 0
-776 771 370 0
776 -771 370 0
-776 -771 -370 0
771 -777 0
776 -777 0
-771 -776 777 0
229 -778 0
88 -778 0
-229 -88 778 0
-777 775 0
-778 775 0
777 778 -775 0
89 230 -780 0
-89 230 780 0
89 -230 780 0
-89 -230 -780 0
780 775 -371 0
-780 775 371 0
780 -775 371 0
-780 -775 -371 0
775 -781 0
780 -781 0
-775 -780 781 0
230 -782 0
89 -782 0
-230 -89 782 0
-781 779 0
-782 779 0
781 782 -779 0
90 231 -784 0
-90 231 784 0
90 -231 784 0
-90 -231 -784 0
784 779 -372 0
-784 779 372 0
784 -779 372 0
-784 -779 -372 0
779 -785 0
784 -785 0
-779 -784 785 0
231 -786 0
90 -786 0
-231 -90 786 0
-785 783 0
-786 783 0
785 786 -783 0
91 232 -788 0
-91 232 788 0
91 -232 788 0
-91 -232 -788 0
788 783 -373 0
-788 783 373 0
788 -783 373 0
-788 -783 -373 0
783 -789 0
788 -789 0
-783 -788 789 0
232 -790 0
91 -790 0
-232 -91 790 0
-789 787 0
-790 787 0
789 790 -787 0
92 233 -792 0
-92 233 792 0
92 -233 792 0
-92 -233 -792 0
792 787 -374 0
-792 787 374 0
792 -787 374 0
-792 -787 -374 0
787 -793 0
792 -793 0
-787 -792 793 0
233 -794 0
92 -794 0
-233 -92 794 0
-793 791 0
-794 791 0
793 794 -791 0
93 234 -796 0
-93 234 796 0
93 -234 796 0
-93 -234 -796 0
796 791 -375 0
-796 791 375 0
796 -791 375 0
-796 -791 -375 0
791 -797 0
796 -797 0
-791 -796 797 0
234 -798 0
93 -798 0
-234 -93 798 0
-797 795 0
-798 795 0
797 798 -795 0
94 235 -800 0
-94 235 800 0
94 -235 800 0
-94 -235 -800 0
800 795 -376 0
-800 795 376 0
800 -795 376 0
-800 -795 -376 0
795 -801 0
800 -801 0
-795 -800 801 0
235 -802 0
94 -802 0
-235 -94 802 0
-801 799 0
-802 799 0
801 802 -799 0
95 236 -804 0
-95 236 804 0
95 -236 804 0
-95 -236 -804 0
804 799 -377 0
-804 799 377 0
804 -799 377 0
-804 -799 -377 0
799 -805 0
804 -805 0
-799 -804 805 0
236 -806 0
95 -806 0
-236 -95 806 0
-805 803 0
-806 803 0
805 806 -803 0
96 237 -808 0
-96 237 808 0
96 -237 808 0
-96 -237 -808 0
808 803 -378 0
-808 803 378 0
808 -803 378 0
-808 -803 -378 0
803 -809 0
808 -809 0
-803 -808 809 0
237 -810 0
96 -810 0
-237 -96 810 0
-809 807 0
-810 807 0
809 810 -807 0
97 238 -812 0
-97 238 812 0
97 -238 812 0
-97 -238 -812 0
812 807 -379 0
-812 807 379 0
812 -807 379 0
-812 -807 -379 0
807 -813 0
812 -813 0
-807 -812 813 0
238 -814 0
97 -814 0
-238 -97 814 0
-813 811 0
-814 811 0
813 814 -811 0
98 239 -816 0
-98 239 816 0
98 -239 816 0
-98 -239 -816 0
816 811 -380 0
-816 811 380 0
816 -811 380 0
-816 -811 -380 0
811 -817 0
816 -817 0
-811 -816 817 0
239 -818 0
98 -818 0
-239 -98 818 0
-817 815 0
-818 815 0
817 818 -815 0
99 240 -820 0
-99 240 820 0
99 -240 820 0
-99 -240 -820 0
820 815 -381 0
-820 815 381 0
820 -815 381 0
-820 -815 -381 0
815 -821 0
820 -821 0
-815 -820 821 0
240 -822 0
99 -822 0
-240 -99 822 0
-821 819 0
-822 819 0
821 822 -819 0
100 241 -824 0
-100 241 824 0
100 -241 824 0
-100 -241 -824 0
824 819 -382 0
-824 819 382 0
824 -819 382 0
-824 -819 -382 0
819 -825 0
824 -825 0
-819 -824 825 0
241 -826 0
100 -826 0
-241 -100 826 0
-825 823 0
-826 823 0
825 826 -823 0
101 242 -828 0
-101 242 828 0
101 -242 828 0
-101 -242 -828 0
828 823 -383 0
-828 823 383 0
828 -823 383 0
-828 -823 -383 0
823 -829 0
828 -829 0
-823 -828 829 0
242 -830 0
101 -830 0
-242 -101 830 0
-829 827 0
-830 827 0
829 830 -827 0
102 243 -832 0
-102 243 832 0
102 -243 832 0
-102 -243 -832 0
832 827 -384 0
-832 827 384 0
832 -827 384 0
-832 -827 -384 0
827 -833 0
832 -833 0
-827 -832 833 0
243 -834 0
102 -834 0
-243 -102 834 0
-833 831 0
-834 831 0
833 834 -831 0
103 244 -836 0
-103 244 836 0
103 -244 836 0
-103 -244 -836 0
836 831 -385 0
-836 831 385 0
836 -831 385 0
-836 -831 -385 0
831 -837 0
836 -837 0
-831 -836 837 0
244 -838 0
103 -838 0
-244 -103 838 0
-837 835 0
-838 835 0
837 838 -835 0
104 245 -840 0
-104 245 840 0
104 -245 840 0
-104 -245 -840 0
840 835 -386 0
-840 835 386 0
840 -835 386 0
-840 -835 -386 0
835 -841 0
840 -841 0
-835 -840 841 0
245 -842 0
104 -842 0
-245 -104 842 0
-841 839 0
-842 839 0
841 842 -839 0
105 246 -844 0
-105 246 844 0
105 -246 844 0
-105 -246 -844 0
844 839 -387 0
-844 839 387 0
844 -839 387 0
-844 -839 -387 0
839 -845 0
844 -845 0
-839 -844 845 0
246 -846 0
105 -846 0
-246 -105 846 0
-845 843 0
-846 843 0
845 846 -843 0
106 247 -848 0
-106 247 848 0
106 -247 848 0
-106 -247 -848 0
848 843 -388 0
-848 843 388 0
848 -843 388 0
-848 -843 -388 0
843 -849 0
848 -849 0
-843 -848 849 0
247 -850 0
106 -850 0
-247 -106 850 0
-849 847 0
-850 847 0
849 850 -847 0
107 248 -852 0
-107 248 852 0
107 -248 852 0
-107 -248 -852 0
852 847 -389 0
-852 847 389 0
852 -847 389 0
-852 -847 -389 0
847 -853 0
852 -853 0
-847 -852 853 0
248 -854 0
107 -854 0
-248 -107 854 0
-853 851 0
-854 851 0
853 854 -851 0
108 249 -856 0
-108 249 856 0
108 -249 856 0
-108 -249 -856 0
856 851 -390 0
-856 851 390 0
856 -851 390 0
-856 -851 -390 0
851 -857 0
856 -857 0
-851 -856 857 0
249 -858 0
108 -858 0
-249 -108 858 0
-857 855 0
-858 855 0
857 858 -855 0
109 250 -860 0
-109 250 860 0
109 -250 860 0
-109 -250 -860 0
860 855 -391 0
-860 855 391 0
860 -855 391 0
-860 -855 -391 0
855 -861 0
860 -861 0
-855 -860 861 0
250 -862 0
109 -862 0
-250 -109 862 0
-861 859 0
-862 859 0
861 862 -859 0
110 251 -864 0
-110 251 864 0
110 -251 864 0
-110 -251 -864 0
864 859 -392 0
-864 859 392 0
864 -859 392 0
-864 -859 -392 0
859 -865 0
864 -865 0
-859 -864 865 0
251 -866 0
110 -866 0
-251 -110 866 0
-865 863 0
-866 863 0
865 866 -863 0
111 252 -868 0
-111 252 868 0
111 -252 868 0
-111 -252 -868 0
868 863 -393 0
-868 863 393 0
868 -863 393 0
-868 -863 -393 0
863 -869 0
868 -869 0
-863 -868 869 0
252 -870 0
111 -870 0
-252 -111 870 0
-869 867 0
-870 867 0
869 870 -867 0
112 253 -872 0
-112 253 872 0
112 -253 872 0
-112 -253 -872 0
872 867 -394 0
-872 867 394 0
872 -867 394 0
-872 -867 -394 0
867 -873 0
872 -873 0
-867 -872 873 0
253 -874 0
112 -874 0
-253 -112 874 0
-873 871 0
-874 871 0
873 874 -871 0
113 254 -876 0
-113 254 876 0
113 -254 876 0
-113 -254 -876 0
876 871 -395 0
-876 871 395 0
876 -871 395 0
-876 -871 -395 0
871 -877 0
876 -877 0
-871 -876 877 0
254 -878 0
113 -878 0
-254 -113 878 0
-877 875 0
-878 875 0
877 878 -875 0
114 255 -880 0
-114 255 880 0
114 -255 880 0
-114 -255 -880 0
880 875 -396 0
-880 875 396 0
880 -875 396 0
-880 -875 -396 0
875 -881 0
880 -881 0
-875 -880 881 0
255 -882 0
114 -882 0
-255 -114 882 0
-881 879 0
-882 879 0
881 882 -879 0
115 256 -884 0
-115 256 884 0
115 -256 884 0
-115 -256 -884 0
884 879 -397 0
-884 879 397 0
884 -879 397 0
-884 -879 -397 0
879 -885 0
884 -885 0
-879 -884 885 0
256 -886 0
115 -886 0
-256 -115 886 0
-885 883 0
-886 883 0
885 886 -883 0
116 257 -888 0
-116 257 888 0
116 -257 888 0
-116 -257 -888 0
888 883 -398 0
-888 883 398 0
888 -883 398 0
-888 -883 -398 0
883 -889 0
888 -889 0
-883 -888 889 0
257 -890 0
116 -890 0
-257 -116 890 0
-889 887 0
-890 887 0
889 890 -887 0
117 258 -892 0
-117 258 892 0
117 -258 892 0
-117 -258 -892 0
892 887 -399 0
-892 887 399 0
892 -887 399 0
-892 -887 -399 0
887 -893 0
892 -893 0
-887 -892 893 0
258 -894 0
117 -894 0
-258 -117 894 0
-893 891 0
-894 891 0
893 894 -891 0
118 259 -896 0
-118 259 896 0
118 -259 896 0
-118 -259 -896 0
896 891 -400 0
-896 891 400 0
896 -891 400 0
-896 -891 -400 0
891 -897 0
896 -897 0
-891 -896 897 0
259 -898 0
118 -898 0
-259 -118 898 0
-897 895 0
-898 895 0
897 898 -895 0
119 260 -900 0
-119 260 900 0
119 -260 900 0
-119 -260 -900 0
900 895 -401 0
-900 895 401 0
900 -895 401 0
-900 -895 -401 0
895 -901 0
900 -901 0
-895 -900 901 0
260 -902 0
119 -902 0
-260 -119 902 0
-901 899 0
-902 899 0
901 902 -899 0
120 261 -904 0
-120 261 904 0
120 -261 904 0
-120 -261 -904 0
904 899 -402 0
-904 899 402 0
904 -899 402 0
-904 -899 -402 0
899 -905 0
904 -905 0
-899 -904 905 0
261 -906 0
120 -906 0
-261 -120 906 0
-905 903 0
-906 903 0
905 906 -903 0
121 262 -908 0
-121 262 908 0
121 -262 908 0
-121 -262 -908 0
908 903 -403 0
-908 903 403 0
908 -903 403 0
-908 -903 -403 0
903 -909 0
908 -909 0
-903 -908 909 0
262 -910 0
121 -910 0
-262 -121 910 0
-909 907 0
-910 907 0
909 910 -907 0
122 263 -912 0
-122 263 912 0
122 -263 912 0
-122 -263 -912 0
912 907 -404 0
-912 907 404 0
912 -907 404 0
-912 -907 -404 0
907 -913 0
912 -913 0
-907 -912 913 0
263 -914 0
122 -914 0
-263 -122 914 0
-913 911 0
-914 911 0
913 914 -911 0
123 264 -916 0
-123 264 916 0
123 -264 916 0
-123 -264 -916 0
916 911 -405 0
-916 911 405 0
916 -911 405 0
-916 -911 -405 0
911 -917 0
916 -917 0
-911 -916 917 0
264 -918 0
123 -918 0
-264 -123 918 0
-917 915 0
-918 915 0
917 918 -915 0
124 265 -920 0
-124 265 920 0
124 -265 920 0
-124 -265 -920 0
920 915 -406 0
-920 915 406 0
920 -915 406 0
-920 -915 -406 0
915 -921 0
920 -921 0
-915 -920 921 0
265 -922 0
124 -922 0
-265 -124 922 0
-921 919 0
-922 919 0
921 922 -919 0
125 266 -924 0
-125 266 924 0
125 -266 924 0
-125 -266 -924 0
924 919 -407 0
-924 919 407 0
924 -919 407 0
-924 -919 -407 0
919 -925 0
924 -925 0
-919 -924 925 0
266 -926 0
125 -926 0
-266 -125 926 0
-925 923 0
-926 923 0
925 926 -923 0
126 267 -928 0
-126 267 928 0
126 -267 928 0
-126 -267 -928 0
928 923 -408 0
-928 923 408 0
928 -923 408 0
-928 -923 -408 0
923 -929 0
928 -929 0
-923 -928 929 0
267 -930 0
126 -930 0
-267 -126 930 0
-929 927 0
-930 927 0
929 930 -927 0
127 268 -932 0
-127 268 932 0
127 -268 932 0
-127 -268 -932 0
932 927 -409 0
-932 927 409 0
932 -927 409 0
-932 -927 -409 0
927 -933 0
932 -933 0
-927 -932 933 0
268 -934 0
127 -934 0
-268 -127 934 0
-933 931 0
-934 931 0
933 934 -931 0
128 269 -936 0
-128 269 936 0
128 -269 936 0
-128 -269 -936 0
936 931 -410 0
-936 931 410 0
936 -931 410 0
-936 -931 -410 0
931 -937 0
936 -937 0
-931 -936 937 0
269 -938 0
128 -938 0
-269 -128 938 0
-937 935 0
-938 935 0
937 938 -935 0
129 270 -940 0
-129 270 940 0
129 -270 940 0
-129 -270 -940 0
940 935 -411 0
-940 935 411 0
940 -935 411 0
-940 -935 -411 0
935 -941 0
940 -941 0
-935 -940 941 0
270 -942 0
129 -942 0
-270 -129 942 0
-941 939 0
-942 939 0
941 942 -939 0
130 271 -944 0
-130 271 944 0
130 -271 944 0
-130 -271 -944 0
944 939 -412 0
-944 939 412 0
944 -939 412 0
-944 -939 -412 0
939 -945 0
944 -945 0
-939 -944 945 0
271 -946 0
130 -946 0
-271 -130 946 0
-945 943 0
-946 943 0
945 946 -943 0
131 272 -948 0
-131 272 948 0
131 -272 948 0
-131 -272 -948 0
948 943 -413 0
-948 943 413 0
948 -943 413 0
-948 -943 -413 0
943 -949 0
948 -949 0
-943 -948 949 0
272 -950 0
131 -950 0
-272 -131 950 0
-949 947 0
-950 947 0
949 950 -947 0
132 273 -952 0
-132 273 952 0
132 -273 952 0
-132 -273 -952 0
952 947 -414 0
-952 947 414 0
952 -947 414 0
-952 -947 -414 0
947 -953 0
952 -953 0
-947 -952 953 0
273 -954 0
132 -954 0
-273 -132 954 0
-953 951 0
-954 951 0
953 954 -951 0
133 274 -956 0
-133 274 956 0
133 -274 956 0
-133 -274 -956 0
956 951 -415 0
-956 951 415 0
956 -951 415 0
-956 -951 -415 0
951 -957 0
956 -957 0
-951 -956 957 0
274 -958 0
133 -958 0
-274 -133 958 0
-957 955 0
-958 955 0
957 958 -955 0
134 275 -960 0
-134 275 960 0
134 -275 960 0
-134 -275 -960 0
960 955 -416 0
-960 955 416 0
960 -955 416 0
-960 -955 -416 0
955 -961 0
960 -961 0
-955 -960 961 0
275 -962 0
134 -962 0
-275 -134 962 0
-961 959 0
-962 959 0
961 962 -959 0
135 276 -964 0
-135 276 964 0
135 -276 964 0
-135 -276 -964 0
964 959 -417 0
-964 959 417 0
964 -959 417 0
-964 -959 -417 0
959 -965 0
964 -965 0
-959 -964 965 0
276 -966 0
135 -966 0
-276 -135 966 0
-965 963 0
-966 963 0
965 966 -963 0
136 277 -968 0
-136 277 968 0
136 -277 968 0
-136 -277 -968 0
968 963 -418 0
-968 963 418 0
968 -963 418 0
-968 -963 -418 0
963 -969 0
968 -969 0
-963 -968 969 0
277 -970 0
136 -970 0
-277 -136 970 0
-969 967 0
-970 967 0
969 970 -967 0
137 278 -972 0
-137 278 972 0
137 -278 972 0
-137 -278 -972 0
972 967 -419 0
-972 967 419 0
972 -967 419 0
-972 -967 -419 0
967 -973 0
972 -973 0
-967 -972 973 0
278 -974 0
137 -974 0
-278 -137 974 0
-973 971 0
-974 971 0
973 974 -971 0
138 279 -976 0
-138 279 976 0
138 -279 976 0
-138 -279 -976 0
976 971 -420 0
-976 971 420 0
976 -971 420 0
-976 -971 -420 0
971 -977 0
976 -977 0
-971 -976 977 0
279 -978 0
138 -978 0
-279 -138 978 0
-977 975 0
-978 975 0
977 978 -975 0
139 280 -980 0
-139 280 980 0
139 -280 980 0
-139 -280 -980 0
980 975 -421 0
-980 975 421 0
980 -975 421 0
-980 -975 -421 0
975 -981 0
980 -981 0
-975 -980 981 0
280 -982 0
139 -982 0
-280 -139 982 0
-981 979 0
-982 979 0
981 982 -979 0
140 281 -984 0
-140 281 984 0
140 -281 984 0
-140 -281 -984 0
984 979 -422 0
-984 979 422 0
984 -979 422 0
-984 -979 -422 0
979 -985 0
984 -985 0
-979 -984 985 0
281 -986 0
140 -986 0
-281 -140 986 0
-985 983 0
-986 983 0
985 986 -983 0
141 282 -987 0
-141 282 987 0
141 -282 987 0
-141 -282 -987 0
987 983 -423 0
-987 983 423 0
987 -983 423 0
-987 -983 -423 0
983 -988 0
987 -988 0
-983 -987 988 0
282 -989 0
141 -989 0
-282 -141 989 0
-988 424 0
-989 424 0
988 989 -424 0
